DIMENSION: 8
EDGE_WEIGHT_TYPE: EXPLICIT
EDGE_WEIGHT_FORMAT: FULL_MATRIX
EDGE_WEIGHT_SECTION:
32767 32767 32767 32767 13 32767 32767 32767 
32767 32767 80 72 72 73 54 32767 
32767 80 32767 87 32767 83 27 32767 
32767 72 87 32767 52 74 32767 8 
13 72 32767 52 32767 65 62 32767 
32767 73 83 74 65 32767 42 32767 
32767 54 27 32767 62 42 32767 32767 
32767 32767 32767 8 32767 32767 32767 32767 
EOF